k = 40;
b = 20;
AtomicConstraints =  [|
2, 1|
	2, 3|
	2, 4|
	2, 6|
	2, 7|
	2, 8|
	2, 18|
	2, 19|
	2, 20|
	3, 1|
	3, 4|
	3, 7|
	3, 8|
	3, 18|
	3, 19|
	3, 20|
	4, 1|
	4, 8|
	4, 18|
	4, 19|
	4, 20|
	5, 1|
	5, 3|
	5, 4|
	5, 6|
	5, 7|
	5, 8|
	5, 18|
	5, 19|
	5, 20|
	6, 1|
	6, 4|
	6, 7|
	6, 8|
	6, 18|
	6, 19|
	6, 20|
	7, 1|
	7, 8|
	7, 18|
	7, 19|
	7, 20|
	8, 1|
	8, 18|
	8, 19|
	8, 20|
	9, 11|
	9, 12|
	9, 13|
	9, 14|
	9, 15|
	9, 16|
	9, 17|
	9, 31|
	9, 36|
	9, 38|
	9, 32|
	10, 9|
	10, 11|
	10, 12|
	10, 13|
	10, 14|
	10, 15|
	10, 16|
	10, 17|
	10, 31|
	10, 36|
	10, 38|
	10, 32|
	12, 16|
	13, 16|
	13, 17|
	36, 31|
	36, 38|
	32, 38|
	37, 39|
	37, 34|
	33, 34|
	40, 20|
	25, 20|
	25, 40|
	25, 35|
	35, 20|
	22, 20|
	22, 35|
	21, 39|
	21, 37|
	21, 34|
	21, 33|
	26, 39|
	26, 37|
	26, 34|
	26, 33|
	23, 39|
	23, 37|
	23, 34|
	23, 33|
	30, 39|
	30, 37|
	30, 34|
	30, 33|
	24, 11|
	24, 12|
	24, 13|
	24, 14|
	24, 15|
	24, 16|
	24, 17|
	24, 39|
	29, 11|
	29, 12|
	29, 13|
	29, 14|
	29, 15|
	29, 16|
	29, 17|
	29, 39|
	29, 34|
	28, 11|
	28, 12|
	28, 13|
	28, 14|
	28, 15|
	28, 16|
	28, 17|
	28, 39|
	28, 37|
	28, 34|
	27, 11|
	27, 12|
	27, 14|
	27, 15|
	27, 16|
	27, 39|
	27, 37|
	27, 34|];
DisjunctiveConstraints =  [|2, 34, 14, 2|
	2, 33, 13, 2|
	3, 34, 14, 3|
	3, 33, 13, 3|
	4, 34, 14, 4|
	4, 33, 13, 4|
	9, 16, 9, 36|
	9, 31, 9, 11|
	10, 16, 10, 36|
	10, 31, 10, 11|
	10, 29, 10, 9|
	14, 15, 14, 11|
	15, 16, 15, 14|
	19, 18, 19, 20|
	35, 20, 40, 35|
	22, 20, 40, 22|
	26, 23, 26, 21|
	23, 11, 31, 23|
	23, 30, 23, 26|
	30, 11, 31, 30|
	29, 37, 29, 17|
	29, 33, 29, 13|
	29, 24, 29, 28|
	28, 37, 28, 17|
	28, 33, 28, 13|
	28, 29, 28, 27|
	27, 12, 27, 32|
	27, 13, 33, 27|
	27, 16, 27, 36|
	27, 17, 37, 27|];
SoftAtomicConstraints =  [|
2, 5|
3, 6|
4, 7|
14, 11|
13, 12|
15, 14|
16, 15|
17, 16|
18, 19|
19, 20|
26, 21|
25, 22|
30, 23|
23, 26|
28, 27|
29, 28|
24, 29|
36, 32|
37, 33|
39, 34|
40, 35|
31, 38|];
DirectSuccessors =  [];
